c description: Random 3-CNF over 18 variables and 77 clauses
c generator: CNFgen (0.9.2)
c copyright: (C) 2012-2022 Massimo Lauria <massimo.lauria@uniroma1.it>
c url: https://massimolauria.net/cnfgen
c command line: cnfgen --output CNF_4.28/18_bit_77_834.cnf randkcnf 3 18 77
c
p cnf 18 77
-1 -9 15 0
1 10 -14 0
4 -16 18 0
12 -16 -17 0
7 -11 12 0
-2 -3 -17 0
4 9 12 0
-6 8 14 0
-6 -7 9 0
6 -10 -18 0
9 -10 -16 0
6 7 -16 0
-1 9 18 0
11 -15 17 0
8 -11 -18 0
2 10 17 0
-2 14 -15 0
1 6 -8 0
-10 11 18 0
-11 -12 -13 0
2 3 -10 0
2 -13 14 0
-13 14 17 0
3 -5 -13 0
-12 -14 -18 0
-7 9 -13 0
2 -8 11 0
6 9 -11 0
-3 9 -11 0
-9 -13 15 0
-1 13 -15 0
-1 5 -18 0
1 4 5 0
-12 14 -18 0
-9 10 11 0
-3 -12 13 0
-4 10 14 0
2 -16 -18 0
2 12 13 0
-3 -5 18 0
-6 12 14 0
2 -11 -16 0
8 16 -17 0
1 6 -17 0
6 -10 12 0
5 -8 -14 0
2 12 -16 0
-3 9 10 0
-11 -16 -17 0
3 -8 9 0
-2 11 -12 0
1 -10 13 0
3 -7 -16 0
4 7 -11 0
7 8 16 0
2 10 -17 0
-3 -6 -15 0
-1 2 -11 0
-4 8 -13 0
8 -11 18 0
-8 -12 18 0
3 -9 17 0
5 8 17 0
4 -8 -18 0
7 15 -16 0
7 9 -12 0
3 -4 -10 0
6 -11 14 0
9 11 -13 0
1 4 -14 0
5 11 13 0
-8 -15 -16 0
-6 7 -13 0
8 12 14 0
-8 14 -17 0
-2 16 -18 0
-8 9 -15 0
